MARKOV
12
2 2 2 2 2 2 2 2 2 2 2 2
15
2 0 1
2 0 2
2 0 3
2 1 3
2 2 3
2 4 5
2 4 6
2 4 7
2 5 7
2 6 7
2 8 9
2 8 10
2 8 11
2 9 11
2 10 11

4
 0.7 0.4
 0.5 0.6

4
 0.3 0.6
 0.4 0.2

4
 0.5 0.1
 0.1 0.5

4
 0.1 0.7
 0.6 0.2

4
 0.4 0.5
 0.8 0.7

4
 0.7 0.1
 0.3 0.9

4
 0.6 0.5
 0.4 0.7

4
 0.5 0.2
 0.8 0.1

4
 0.1 0.6
 0.4 0.2

4
 0.6 0.1
 0.8 0.9

4
 0.1 0.8
 0.2 0.3

4
 0.4 0.9
 0.1 0.7

4
 0.9 0.1
 0.2 0.7

4
 0.2 0.9
 0.6 0.3

4
 0.1 0.2
 0.7 0.3


